<?xml version = "1.0" encoding="UTF-8" standalone="yes"?>
<CPLEXSolution version="1.2">
 <header
   problemName="IloCplex"
   solutionName="p0"
   solutionIndex="-1"
   objectiveValue="6438102"
   solutionTypeValue="3"
   solutionTypeString="primal"
   solutionStatusValue="127"
   solutionStatusString="integer feasible solution"
   solutionMethodString="mip"
   primalFeasible="0"
   dualFeasible="0"
   writeLevel="3"/>
 <quality
   epInt="1.0000000000000001e-05"
   epRHS="9.9999999999999995e-07"
   maxIntInfeas="0"
   maxPrimalInfeas="0"
   maxX="1"
   maxSlack="1"/>
 <variables>
  <variable name="w1_3" index="16" value="1"/>
  <variable name="w1_4" index="17" value="1"/>
  <variable name="w1_8" index="21" value="1"/>
  <variable name="w1_10" index="23" value="1"/>
  <variable name="w1_12" index="25" value="1"/>
  <variable name="w2_3" index="29" value="1"/>
  <variable name="w2_4" index="30" value="1"/>
  <variable name="w2_8" index="34" value="1"/>
  <variable name="w2_10" index="36" value="1"/>
  <variable name="w2_12" index="38" value="1"/>
  <variable name="w4_3" index="55" value="1"/>
  <variable name="w4_4" index="56" value="1"/>
  <variable name="w4_8" index="60" value="1"/>
  <variable name="w4_10" index="62" value="1"/>
  <variable name="w4_12" index="64" value="1"/>
  <variable name="w5_3" index="68" value="1"/>
  <variable name="w5_4" index="69" value="1"/>
  <variable name="w5_8" index="73" value="1"/>
  <variable name="w5_10" index="75" value="1"/>
  <variable name="w5_12" index="77" value="1"/>
  <variable name="w7_3" index="94" value="1"/>
  <variable name="w7_4" index="95" value="1"/>
  <variable name="w7_8" index="99" value="1"/>
  <variable name="w7_10" index="101" value="1"/>
  <variable name="w7_12" index="103" value="1"/>
  <variable name="w9_3" index="120" value="1"/>
  <variable name="w9_4" index="121" value="1"/>
  <variable name="w9_8" index="125" value="1"/>
  <variable name="w9_10" index="127" value="1"/>
  <variable name="w9_12" index="129" value="1"/>
  <variable name="w11_3" index="146" value="1"/>
  <variable name="w11_4" index="147" value="1"/>
  <variable name="w11_8" index="151" value="1"/>
  <variable name="w11_10" index="153" value="1"/>
  <variable name="w11_12" index="155" value="1"/>
  <variable name="x0_200" index="369" value="1"/>
  <variable name="x1_369" index="1138" value="1"/>
  <variable name="x2_4" index="1373" value="1"/>
  <variable name="x3_208" index="2177" value="1"/>
  <variable name="x4_298" index="2867" value="1"/>
  <variable name="x5_161" index="3330" value="1"/>
  <variable name="x6_34" index="3803" value="1"/>
  <variable name="x7_361" index="4730" value="1"/>
  <variable name="x8_15" index="4984" value="1"/>
  <variable name="x9_350" index="5919" value="1"/>
  <variable name="x10_13" index="6182" value="1"/>
  <variable name="x11_141" index="6910" value="1"/>
  <variable name="x12_478" index="7847" value="1"/>
  <variable name="x13_21" index="7990" value="1"/>
  <variable name="x14_275" index="8844" value="1"/>
  <variable name="x15_116" index="9285" value="1"/>
  <variable name="x16_338" index="10107" value="1"/>
  <variable name="x17_42" index="10411" value="1"/>
  <variable name="x18_496" index="11465" value="1"/>
  <variable name="x19_220" index="11789" value="1"/>
  <variable name="x20_487" index="12656" value="1"/>
  <variable name="x21_248" index="13017" value="1"/>
  <variable name="x22_399" index="13768" value="1"/>
  <variable name="x23_166" index="14135" value="1"/>
  <variable name="x24_46" index="14615" value="1"/>
  <variable name="x25_462" index="15631" value="1"/>
  <variable name="x26_571" index="16340" value="1"/>
  <variable name="x27_326" index="16695" value="1"/>
  <variable name="x28_401" index="17370" value="1"/>
  <variable name="x29_216" index="17785" value="1"/>
  <variable name="x30_140" index="18309" value="1"/>
  <variable name="x31_219" index="18988" value="1"/>
  <variable name="x32_308" index="19677" value="1"/>
  <variable name="x33_147" index="20116" value="1"/>
  <variable name="x34_395" index="20964" value="1"/>
  <variable name="x35_525" index="21694" value="1"/>
  <variable name="x36_129" index="21898" value="1"/>
  <variable name="x37_552" index="22921" value="1"/>
  <variable name="x38_354" index="23323" value="1"/>
  <variable name="x39_142" index="23711" value="1"/>
  <variable name="x40_273" index="24442" value="1"/>
  <variable name="x41_472" index="25241" value="1"/>
  <variable name="x42_518" index="25887" value="1"/>
  <variable name="x43_242" index="26211" value="1"/>
  <variable name="x44_169" index="26738" value="1"/>
  <variable name="x45_345" index="27514" value="1"/>
  <variable name="x46_434" index="28203" value="1"/>
  <variable name="x47_371" index="28740" value="1"/>
  <variable name="x48_514" index="29483" value="1"/>
  <variable name="x49_24" index="29593" value="1"/>
  <variable name="x50_348" index="30517" value="1"/>
  <variable name="x51_121" index="30890" value="1"/>
  <variable name="x52_45" index="31414" value="1"/>
  <variable name="x53_134" index="32103" value="1"/>
  <variable name="x54_319" index="32888" value="1"/>
  <variable name="x55_580" index="33749" value="1"/>
  <variable name="x56_295" index="34064" value="1"/>
  <variable name="x57_5" index="34374" value="1"/>
  <variable name="x58_128" index="35097" value="1"/>
  <variable name="x59_307" index="35876" value="1"/>
  <variable name="x60_537" index="36706" value="1"/>
  <variable name="x61_545" index="37314" value="1"/>
  <variable name="x62_408" index="37777" value="1"/>
  <variable name="x63_100" index="38069" value="1"/>
  <variable name="x64_233" index="38802" value="1"/>
  <variable name="x65_435" index="39604" value="1"/>
  <variable name="x66_225" index="39994" value="1"/>
  <variable name="x67_329" index="40698" value="1"/>
  <variable name="x68_196" index="41165" value="1"/>
  <variable name="x69_249" index="41818" value="1"/>
  <variable name="x70_238" index="42407" value="1"/>
  <variable name="x71_595" index="43364" value="1"/>
  <variable name="x72_359" index="43728" value="1"/>
  <variable name="x73_74" index="44043" value="1"/>
  <variable name="x74_63" index="44632" value="1"/>
  <variable name="x75_25" index="45194" value="1"/>
  <variable name="x76_106" index="45875" value="1"/>
  <variable name="x77_165" index="46534" value="1"/>
  <variable name="x78_88" index="47057" value="1"/>
  <variable name="x79_107" index="47676" value="1"/>
  <variable name="x80_424" index="48593" value="1"/>
  <variable name="x81_82" index="48851" value="1"/>
  <variable name="x82_124" index="49493" value="1"/>
  <variable name="x83_335" index="50304" value="1"/>
  <variable name="x84_437" index="51006" value="1"/>
  <variable name="x85_265" index="51434" value="1"/>
  <variable name="x86_531" index="52300" value="1"/>
  <variable name="x87_250" index="52619" value="1"/>
  <variable name="x88_391" index="53360" value="1"/>
  <variable name="x89_2" index="53571" value="1"/>
  <variable name="x90_591" index="54760" value="1"/>
  <variable name="x91_573" index="55342" value="1"/>
  <variable name="x92_183" index="55552" value="1"/>
  <variable name="x93_377" index="56346" value="1"/>
  <variable name="x94_145" index="56714" value="1"/>
  <variable name="x95_9" index="57178" value="1"/>
  <variable name="x96_296" index="58065" value="1"/>
  <variable name="x97_97" index="58466" value="1"/>
  <variable name="x98_209" index="59178" value="1"/>
  <variable name="x99_152" index="59721" value="1"/>
  <variable name="x100_287" index="60456" value="1"/>
  <variable name="x101_266" index="61035" value="1"/>
  <variable name="x102_441" index="61810" value="1"/>
  <variable name="x103_280" index="62249" value="1"/>
  <variable name="x104_47" index="62616" value="1"/>
  <variable name="x105_414" index="63583" value="1"/>
  <variable name="x106_575" index="64344" value="1"/>
  <variable name="x107_241" index="64610" value="1"/>
  <variable name="x108_527" index="65496" value="1"/>
  <variable name="x109_131" index="65700" value="1"/>
  <variable name="x110_426" index="66595" value="1"/>
  <variable name="x111_406" index="67175" value="1"/>
  <variable name="x112_388" index="67757" value="1"/>
  <variable name="x113_40" index="68009" value="1"/>
  <variable name="x114_212" index="68781" value="1"/>
  <variable name="x115_226" index="69395" value="1"/>
  <variable name="x116_195" index="69964" value="1"/>
  <variable name="x117_19" index="70388" value="1"/>
  <variable name="x118_119" index="71088" value="1"/>
  <variable name="x119_67" index="71636" value="1"/>
  <variable name="x120_137" index="72306" value="1"/>
  <variable name="x121_347" index="73116" value="1"/>
  <variable name="x122_293" index="73662" value="1"/>
  <variable name="x123_149" index="74118" value="1"/>
  <variable name="x124_8" index="74577" value="1"/>
  <variable name="x125_469" index="75638" value="1"/>
  <variable name="x126_179" index="75948" value="1"/>
  <variable name="x127_420" index="76789" value="1"/>
  <variable name="x128_286" index="77255" value="1"/>
  <variable name="x129_177" index="77746" value="1"/>
  <variable name="x130_245" index="78414" value="1"/>
  <variable name="x131_114" index="78883" value="1"/>
  <variable name="x132_524" index="79893" value="1"/>
  <variable name="x133_358" index="80327" value="1"/>
  <variable name="x134_84" index="80653" value="1"/>
  <variable name="x135_516" index="81685" value="1"/>
  <variable name="x136_26" index="81795" value="1"/>
  <variable name="x137_93" index="82462" value="1"/>
  <variable name="x138_302" index="83271" value="1"/>
  <variable name="x139_477" index="84046" value="1"/>
  <variable name="x140_143" index="84312" value="1"/>
  <variable name="x141_579" index="85348" value="1"/>
  <variable name="x142_218" index="85587" value="1"/>
  <variable name="x143_159" index="86128" value="1"/>
  <variable name="x144_173" index="86742" value="1"/>
  <variable name="x145_228" index="87397" value="1"/>
  <variable name="x146_570" index="88339" value="1"/>
  <variable name="x147_260" index="88629" value="1"/>
  <variable name="x148_566" index="89535" value="1"/>
  <variable name="x149_584" index="90153" value="1"/>
  <variable name="x150_398" index="90567" value="1"/>
  <variable name="x151_70" index="90839" value="1"/>
  <variable name="x152_586" index="91955" value="1"/>
  <variable name="x153_410" index="92379" value="1"/>
  <variable name="x154_325" index="92894" value="1"/>
  <variable name="x155_201" index="93370" value="1"/>
  <variable name="x156_425" index="94194" value="1"/>
  <variable name="x157_409" index="94778" value="1"/>
  <variable name="x158_512" index="95481" value="1"/>
  <variable name="x159_28" index="95597" value="1"/>
  <variable name="x160_223" index="96392" value="1"/>
  <variable name="x161_337" index="97106" value="1"/>
  <variable name="x162_205" index="97574" value="1"/>
  <variable name="x163_6" index="97975" value="1"/>
  <variable name="x164_317" index="98886" value="1"/>
  <variable name="x165_37" index="99206" value="1"/>
  <variable name="x166_572" index="100341" value="1"/>
  <variable name="x167_213" index="100582" value="1"/>
  <variable name="x168_239" index="101208" value="1"/>
  <variable name="x169_538" index="102107" value="1"/>
  <variable name="x170_61" index="102230" value="1"/>
  <variable name="x171_546" index="103315" value="1"/>
  <variable name="x172_167" index="103536" value="1"/>
  <variable name="x173_471" index="104440" value="1"/>
  <variable name="x174_560" index="105129" value="1"/>
  <variable name="x175_299" index="105468" value="1"/>
  <variable name="x176_476" index="106245" value="1"/>
  <variable name="x177_68" index="106437" value="1"/>
  <variable name="x178_227" index="107196" value="1"/>
  <variable name="x179_404" index="107973" value="1"/>
  <variable name="x180_422" index="108591" value="1"/>
  <variable name="x181_466" index="109235" value="1"/>
  <variable name="x182_64" index="109433" value="1"/>
  <variable name="x183_484" index="110453" value="1"/>
  <variable name="x184_289" index="110858" value="1"/>
  <variable name="x185_513" index="111682" value="1"/>
  <variable name="x186_452" index="112221" value="1"/>
  <variable name="x187_342" index="112711" value="1"/>
  <variable name="x188_292" index="113261" value="1"/>
  <variable name="x189_375" index="113944" value="1"/>
  <variable name="x190_69" index="114238" value="1"/>
  <variable name="x191_596" index="115365" value="1"/>
  <variable name="x192_172" index="115541" value="1"/>
  <variable name="x193_360" index="116329" value="1"/>
  <variable name="x194_368" index="116937" value="1"/>
  <variable name="x195_51" index="117220" value="1"/>
  <variable name="x196_122" index="117891" value="1"/>
  <variable name="x197_486" index="118855" value="1"/>
  <variable name="x198_344" index="119313" value="1"/>
  <variable name="x199_41" index="119610" value="1"/>
  <variable name="x200_392" index="120561" value="1"/>
  <variable name="x201_559" index="121328" value="1"/>
  <variable name="x202_493" index="121862" value="1"/>
  <variable name="x203_58" index="122027" value="1"/>
  <variable name="x204_490" index="123059" value="1"/>
  <variable name="x205_158" index="123327" value="1"/>
  <variable name="x206_492" index="124261" value="1"/>
  <variable name="x207_509" index="124878" value="1"/>
  <variable name="x208_380" index="125349" value="1"/>
  <variable name="x209_56" index="125625" value="1"/>
  <variable name="x210_583" index="126752" value="1"/>
  <variable name="x211_333" index="127102" value="1"/>
  <variable name="x212_118" index="127487" value="1"/>
  <variable name="x213_270" index="128239" value="1"/>
  <variable name="x214_372" index="128941" value="1"/>
  <variable name="x215_599" index="129768" value="1"/>
  <variable name="x216_529" index="130298" value="1"/>
  <variable name="x217_373" index="130742" value="1"/>
  <variable name="x218_349" index="131318" value="1"/>
  <variable name="x219_94" index="131663" value="1"/>
  <variable name="x220_442" index="132611" value="1"/>
  <variable name="x221_588" index="133357" value="1"/>
  <variable name="x222_221" index="133590" value="1"/>
  <variable name="x223_102" index="134071" value="1"/>
  <variable name="x224_520" index="135089" value="1"/>
  <variable name="x225_215" index="135384" value="1"/>
  <variable name="x226_279" index="136048" value="1"/>
  <variable name="x227_577" index="136946" value="1"/>
  <variable name="x228_423" index="137392" value="1"/>
  <variable name="x229_411" index="137980" value="1"/>
  <variable name="x230_592" index="138761" value="1"/>
  <variable name="x231_488" index="139257" value="1"/>
  <variable name="x232_282" index="139651" value="1"/>
  <variable name="x233_253" index="140222" value="1"/>
  <variable name="x234_85" index="140654" value="1"/>
  <variable name="x235_76" index="141245" value="1"/>
  <variable name="x236_230" index="141999" value="1"/>
  <variable name="x237_54" index="142423" value="1"/>
  <variable name="x238_157" index="143126" value="1"/>
  <variable name="x239_551" index="144120" value="1"/>
  <variable name="x240_78" index="144247" value="1"/>
  <variable name="x241_211" index="144980" value="1"/>
  <variable name="x242_120" index="145489" value="1"/>
  <variable name="x243_103" index="146072" value="1"/>
  <variable name="x244_508" index="147077" value="1"/>
  <variable name="x245_262" index="147431" value="1"/>
  <variable name="x246_277" index="148046" value="1"/>
  <variable name="x247_505" index="148874" value="1"/>
  <variable name="x248_139" index="149108" value="1"/>
  <variable name="x249_400" index="149969" value="1"/>
  <variable name="x250_405" index="150574" value="1"/>
  <variable name="x251_192" index="150961" value="1"/>
  <variable name="x252_417" index="151786" value="1"/>
  <variable name="x253_311" index="152280" value="1"/>
  <variable name="x254_387" index="152956" value="1"/>
  <variable name="x255_389" index="153558" value="1"/>
  <variable name="x256_443" index="154212" value="1"/>
  <variable name="x257_300" index="154669" value="1"/>
  <variable name="x258_27" index="154996" value="1"/>
  <variable name="x259_458" index="156027" value="1"/>
  <variable name="x260_470" index="156639" value="1"/>
  <variable name="x261_281" index="157050" value="1"/>
  <variable name="x262_0" index="157369" value="1"/>
  <variable name="x263_494" index="158463" value="1"/>
  <variable name="x264_83" index="158652" value="1"/>
  <variable name="x265_576" index="159745" value="1"/>
  <variable name="x266_459" index="160228" value="1"/>
  <variable name="x267_17" index="160386" value="1"/>
  <variable name="x268_503" index="161472" value="1"/>
  <variable name="x269_467" index="162036" value="1"/>
  <variable name="x270_151" index="162320" value="1"/>
  <variable name="x271_39" index="162808" value="1"/>
  <variable name="x272_36" index="163405" value="1"/>
  <variable name="x273_353" index="164322" value="1"/>
  <variable name="x274_351" index="164920" value="1"/>
  <variable name="x275_418" index="165587" value="1"/>
  <variable name="x276_382" index="166151" value="1"/>
  <variable name="x277_433" index="166802" value="1"/>
  <variable name="x278_235" index="167204" value="1"/>
  <variable name="x279_504" index="168073" value="1"/>
  <variable name="x280_252" index="168421" value="1"/>
  <variable name="x281_109" index="168878" value="1"/>
  <variable name="x282_598" index="169967" value="1"/>
  <variable name="x283_53" index="170022" value="1"/>
  <variable name="x284_153" index="170722" value="1"/>
  <variable name="x285_473" index="171642" value="1"/>
  <variable name="x286_339" index="172108" value="1"/>
  <variable name="x287_432" index="172801" value="1"/>
  <variable name="x288_197" index="173166" value="1"/>
  <variable name="x289_203" index="173772" value="1"/>
  <variable name="x290_95" index="174264" value="1"/>
  <variable name="x291_86" index="174855" value="1"/>
  <variable name="x292_549" index="175918" value="1"/>
  <variable name="x293_29" index="175998" value="1"/>
  <variable name="x294_346" index="176915" value="1"/>
  <variable name="x295_461" index="177630" value="1"/>
  <variable name="x296_465" index="178234" value="1"/>
  <variable name="x297_146" index="178515" value="1"/>
  <variable name="x298_438" index="179407" value="1"/>
  <variable name="x299_557" index="180126" value="1"/>
  <variable name="x300_271" index="180440" value="1"/>
  <variable name="x301_115" index="180884" value="1"/>
  <variable name="x302_474" index="181843" value="1"/>
  <variable name="x303_81" index="182050" value="1"/>
  <variable name="x304_7" index="182576" value="1"/>
  <variable name="x305_136" index="183305" value="1"/>
  <variable name="x306_554" index="184323" value="1"/>
  <variable name="x307_294" index="184663" value="1"/>
  <variable name="x308_562" index="185531" value="1"/>
  <variable name="x309_463" index="186032" value="1"/>
  <variable name="x310_303" index="186472" value="1"/>
  <variable name="x311_123" index="186892" value="1"/>
  <variable name="x312_309" index="187678" value="1"/>
  <variable name="x313_427" index="188396" value="1"/>
  <variable name="x314_104" index="188673" value="1"/>
  <variable name="x315_530" index="189699" value="1"/>
  <variable name="x316_318" index="190087" value="1"/>
  <variable name="x317_80" index="190449" value="1"/>
  <variable name="x318_96" index="191065" value="1"/>
  <variable name="x319_194" index="191763" value="1"/>
  <variable name="x320_246" index="192415" value="1"/>
  <variable name="x321_125" index="192894" value="1"/>
  <variable name="x322_449" index="193818" value="1"/>
  <variable name="x323_44" index="194013" value="1"/>
  <variable name="x324_191" index="194760" value="1"/>
  <variable name="x325_31" index="195200" value="1"/>
  <variable name="x326_272" index="196041" value="1"/>
  <variable name="x327_582" index="196951" value="1"/>
  <variable name="x328_324" index="197293" value="1"/>
  <variable name="x329_1" index="197570" value="1"/>
  <variable name="x330_12" index="198181" value="1"/>
  <variable name="x331_65" index="198834" value="1"/>
  <variable name="x332_155" index="199524" value="1"/>
  <variable name="x333_202" index="200171" value="1"/>
  <variable name="x334_528" index="201097" value="1"/>
  <variable name="x335_254" index="201423" value="1"/>
  <variable name="x336_126" index="201895" value="1"/>
  <variable name="x337_304" index="202673" value="1"/>
  <variable name="x338_448" index="203417" value="1"/>
  <variable name="x339_188" index="203757" value="1"/>
  <variable name="x340_544" index="204713" value="1"/>
  <variable name="x341_555" index="205324" value="1"/>
  <variable name="x342_341" index="205710" value="1"/>
  <variable name="x343_99" index="206068" value="1"/>
  <variable name="x344_288" index="206857" value="1"/>
  <variable name="x345_163" index="207332" value="1"/>
  <variable name="x346_548" index="208317" value="1"/>
  <variable name="x347_370" index="208739" value="1"/>
  <variable name="x348_533" index="209502" value="1"/>
  <variable name="x349_407" index="209976" value="1"/>
  <variable name="x350_150" index="210319" value="1"/>
  <variable name="x351_35" index="210804" value="1"/>
  <variable name="x352_558" index="211927" value="1"/>
  <variable name="x353_522" index="212491" value="1"/>
  <variable name="x354_214" index="212783" value="1"/>
  <variable name="x355_440" index="213609" value="1"/>
  <variable name="x356_89" index="213858" value="1"/>
  <variable name="x357_539" index="214908" value="1"/>
  <variable name="x358_91" index="215060" value="1"/>
  <variable name="x359_483" index="216052" value="1"/>
  <variable name="x360_291" index="216460" value="1"/>
  <variable name="x361_542" index="217311" value="1"/>
  <variable name="x362_352" index="217721" value="1"/>
  <variable name="x363_479" index="218448" value="1"/>
  <variable name="x364_110" index="218679" value="1"/>
  <variable name="x365_444" index="219613" value="1"/>
  <variable name="x366_87" index="219856" value="1"/>
  <variable name="x367_323" index="220692" value="1"/>
  <variable name="x368_237" index="221206" value="1"/>
  <variable name="x369_413" index="221982" value="1"/>
  <variable name="x370_355" index="222524" value="1"/>
  <variable name="x371_156" index="222925" value="1"/>
  <variable name="x372_33" index="223402" value="1"/>
  <variable name="x373_430" index="224399" value="1"/>
  <variable name="x374_198" index="224767" value="1"/>
  <variable name="x375_20" index="225189" value="1"/>
  <variable name="x376_517" index="226286" value="1"/>
  <variable name="x377_594" index="226963" value="1"/>
  <variable name="x378_393" index="227362" value="1"/>
  <variable name="x379_589" index="228158" value="1"/>
  <variable name="x380_456" index="228625" value="1"/>
  <variable name="x381_366" index="229135" value="1"/>
  <variable name="x382_315" index="229684" value="1"/>
  <variable name="x383_210" index="230179" value="1"/>
  <variable name="x384_164" index="230733" value="1"/>
  <variable name="x385_457" index="231626" value="1"/>
  <variable name="x386_278" index="232047" value="1"/>
  <variable name="x387_321" index="232690" value="1"/>
  <variable name="x388_182" index="233151" value="1"/>
  <variable name="x389_170" index="233739" value="1"/>
  <variable name="x390_534" index="234703" value="1"/>
  <variable name="x391_416" index="235185" value="1"/>
  <variable name="x392_569" index="235938" value="1"/>
  <variable name="x393_184" index="236153" value="1"/>
  <variable name="x394_495" index="237064" value="1"/>
  <variable name="x395_247" index="237416" value="1"/>
  <variable name="x396_256" index="238025" value="1"/>
  <variable name="x397_285" index="238654" value="1"/>
  <variable name="x398_394" index="239363" value="1"/>
  <variable name="x399_521" index="240090" value="1"/>
  <variable name="x400_367" index="240536" value="1"/>
  <variable name="x401_176" index="240945" value="1"/>
  <variable name="x402_385" index="241754" value="1"/>
  <variable name="x403_297" index="242266" value="1"/>
  <variable name="x404_439" index="243008" value="1"/>
  <variable name="x405_232" index="243401" value="1"/>
  <variable name="x406_340" index="244109" value="1"/>
  <variable name="x407_255" index="244624" value="1"/>
  <variable name="x408_497" index="245466" value="1"/>
  <variable name="x409_175" index="245744" value="1"/>
  <variable name="x410_507" index="246676" value="1"/>
  <variable name="x411_229" index="246998" value="1"/>
  <variable name="x412_482" index="247851" value="1"/>
  <variable name="x413_193" index="248162" value="1"/>
  <variable name="x414_547" index="249116" value="1"/>
  <variable name="x415_313" index="249482" value="1"/>
  <variable name="x416_334" index="250103" value="1"/>
  <variable name="x417_475" index="250844" value="1"/>
  <variable name="x418_498" index="251467" value="1"/>
  <variable name="x419_204" index="251773" value="1"/>
  <variable name="x420_331" index="252500" value="1"/>
  <variable name="x421_207" index="252976" value="1"/>
  <variable name="x422_243" index="253612" value="1"/>
  <variable name="x423_171" index="254140" value="1"/>
  <variable name="x424_135" index="254704" value="1"/>
  <variable name="x425_328" index="255497" value="1"/>
  <variable name="x426_90" index="255859" value="1"/>
  <variable name="x427_526" index="256895" value="1"/>
  <variable name="x428_16" index="256985" value="1"/>
  <variable name="x429_378" index="257947" value="1"/>
  <variable name="x430_133" index="258302" value="1"/>
  <variable name="x431_32" index="258801" value="1"/>
  <variable name="x432_523" index="259892" value="1"/>
  <variable name="x433_38" index="260007" value="1"/>
  <variable name="x434_310" index="260879" value="1"/>
  <variable name="x435_536" index="261705" value="1"/>
  <variable name="x436_49" index="261818" value="1"/>
  <variable name="x437_574" index="262943" value="1"/>
  <variable name="x438_264" index="263233" value="1"/>
  <variable name="x439_48" index="263617" value="1"/>
  <variable name="x440_436" index="264605" value="1"/>
  <variable name="x441_263" index="265032" value="1"/>
  <variable name="x442_276" index="265645" value="1"/>
  <variable name="x443_500" index="266469" value="1"/>
  <variable name="x444_22" index="266591" value="1"/>
  <variable name="x445_419" index="267588" value="1"/>
  <variable name="x446_187" index="267956" value="1"/>
  <variable name="x447_11" index="268380" value="1"/>
  <variable name="x448_160" index="269129" value="1"/>
  <variable name="x449_217" index="269786" value="1"/>
  <variable name="x450_43" index="270212" value="1"/>
  <variable name="x451_480" index="271249" value="1"/>
  <variable name="x452_189" index="271558" value="1"/>
  <variable name="x453_561" index="272530" value="1"/>
  <variable name="x454_236" index="272805" value="1"/>
  <variable name="x455_421" index="273590" value="1"/>
  <variable name="x456_445" index="274214" value="1"/>
  <variable name="x457_258" index="274627" value="1"/>
  <variable name="x458_565" index="275534" value="1"/>
  <variable name="x459_357" index="275926" value="1"/>
  <variable name="x460_343" index="276512" value="1"/>
  <variable name="x461_587" index="277356" value="1"/>
  <variable name="x462_553" index="277922" value="1"/>
  <variable name="x463_356" index="278325" value="1"/>
  <variable name="x464_502" index="279071" value="1"/>
  <variable name="x465_415" index="279584" value="1"/>
  <variable name="x466_257" index="280026" value="1"/>
  <variable name="x467_312" index="280681" value="1"/>
  <variable name="x468_567" index="281536" value="1"/>
  <variable name="x469_3" index="281572" value="1"/>
  <variable name="x470_72" index="282241" value="1"/>
  <variable name="x471_259" index="283028" value="1"/>
  <variable name="x472_111" index="283480" value="1"/>
  <variable name="x473_306" index="284275" value="1"/>
  <variable name="x474_510" index="285079" value="1"/>
  <variable name="x475_578" index="285747" value="1"/>
  <variable name="x476_55" index="285824" value="1"/>
  <variable name="x477_363" index="286732" value="1"/>
  <variable name="x478_240" index="287209" value="1"/>
  <variable name="x479_60" index="287629" value="1"/>
  <variable name="x480_447" index="288616" value="1"/>
  <variable name="x481_450" index="289219" value="1"/>
  <variable name="x482_52" index="289421" value="1"/>
  <variable name="x483_180" index="290149" value="1"/>
  <variable name="x484_506" index="291075" value="1"/>
  <variable name="x485_403" index="291572" value="1"/>
  <variable name="x486_451" index="292220" value="1"/>
  <variable name="x487_269" index="292638" value="1"/>
  <variable name="x488_77" index="293046" value="1"/>
  <variable name="x489_222" index="293791" value="1"/>
  <variable name="x490_314" index="294483" value="1"/>
  <variable name="x491_154" index="294923" value="1"/>
  <variable name="x492_224" index="295593" value="1"/>
  <variable name="x493_75" index="296044" value="1"/>
  <variable name="x494_23" index="296592" value="1"/>
  <variable name="x495_563" index="297732" value="1"/>
  <variable name="x496_144" index="297913" value="1"/>
  <variable name="x497_168" index="298537" value="1"/>
  <variable name="x498_251" index="299220" value="1"/>
  <variable name="x499_50" index="299619" value="1"/>
  <variable name="x500_532" index="300701" value="1"/>
  <variable name="x501_468" index="301237" value="1"/>
  <variable name="x502_429" index="301798" value="1"/>
  <variable name="x503_384" index="302353" value="1"/>
  <variable name="x504_541" index="303110" value="1"/>
  <variable name="x505_327" index="303496" value="1"/>
  <variable name="x506_364" index="304133" value="1"/>
  <variable name="x507_261" index="304630" value="1"/>
  <variable name="x508_185" index="305154" value="1"/>
  <variable name="x509_330" index="305899" value="1"/>
  <variable name="x510_501" index="306670" value="1"/>
  <variable name="x511_117" index="306886" value="1"/>
  <variable name="x512_519" index="307888" value="1"/>
  <variable name="x513_190" index="308159" value="1"/>
  <variable name="x514_336" index="308905" value="1"/>
  <variable name="x515_597" index="309766" value="1"/>
  <variable name="x516_381" index="310150" value="1"/>
  <variable name="x517_431" index="310800" value="1"/>
  <variable name="x518_62" index="311031" value="1"/>
  <variable name="x519_79" index="311648" value="1"/>
  <variable name="x520_550" index="312719" value="1"/>
  <variable name="x521_481" index="313250" value="1"/>
  <variable name="x522_568" index="313937" value="1"/>
  <variable name="x523_234" index="314203" value="1"/>
  <variable name="x524_231" index="314800" value="1"/>
  <variable name="x525_322" index="315491" value="1"/>
  <variable name="x526_186" index="315955" value="1"/>
  <variable name="x527_446" index="316815" value="1"/>
  <variable name="x528_453" index="317422" value="1"/>
  <variable name="x529_59" index="317628" value="1"/>
  <variable name="x530_593" index="318762" value="1"/>
  <variable name="x531_581" index="319350" value="1"/>
  <variable name="x532_332" index="319701" value="1"/>
  <variable name="x533_464" index="320433" value="1"/>
  <variable name="x534_491" index="321060" value="1"/>
  <variable name="x535_206" index="321375" value="1"/>
  <variable name="x536_181" index="321950" value="1"/>
  <variable name="x537_543" index="322912" value="1"/>
  <variable name="x538_267" index="323236" value="1"/>
  <variable name="x539_365" index="323934" value="1"/>
  <variable name="x540_455" index="324624" value="1"/>
  <variable name="x541_515" index="325284" value="1"/>
  <variable name="x542_383" index="325752" value="1"/>
  <variable name="x543_390" index="326359" value="1"/>
  <variable name="x544_374" index="326943" value="1"/>
  <variable name="x545_590" index="327759" value="1"/>
  <variable name="x546_132" index="327901" value="1"/>
  <variable name="x547_386" index="328755" value="1"/>
  <variable name="x548_98" index="329067" value="1"/>
  <variable name="x549_57" index="329626" value="1"/>
  <variable name="x550_66" index="330235" value="1"/>
  <variable name="x551_73" index="330842" value="1"/>
  <variable name="x552_454" index="331823" value="1"/>
  <variable name="x553_301" index="332270" value="1"/>
  <variable name="x554_428" index="332997" value="1"/>
  <variable name="x555_162" index="333331" value="1"/>
  <variable name="x556_148" index="333917" value="1"/>
  <variable name="x557_71" index="334440" value="1"/>
  <variable name="x558_10" index="334979" value="1"/>
  <variable name="x559_244" index="335813" value="1"/>
  <variable name="x560_397" index="336566" value="1"/>
  <variable name="x561_105" index="336874" value="1"/>
  <variable name="x562_402" index="337771" value="1"/>
  <variable name="x563_112" index="338081" value="1"/>
  <variable name="x564_379" index="338948" value="1"/>
  <variable name="x565_511" index="339680" value="1"/>
  <variable name="x566_283" index="340052" value="1"/>
  <variable name="x567_396" index="340765" value="1"/>
  <variable name="x568_14" index="340983" value="1"/>
  <variable name="x569_489" index="342058" value="1"/>
  <variable name="x570_316" index="342485" value="1"/>
  <variable name="x571_268" index="343037" value="1"/>
  <variable name="x572_540" index="343909" value="1"/>
  <variable name="x573_127" index="344096" value="1"/>
  <variable name="x574_305" index="344874" value="1"/>
  <variable name="x575_499" index="345668" value="1"/>
  <variable name="x576_18" index="345787" value="1"/>
  <variable name="x577_290" index="346659" value="1"/>
  <variable name="x578_585" index="347554" value="1"/>
  <variable name="x579_564" index="348133" value="1"/>
  <variable name="x580_138" index="348307" value="1"/>
  <variable name="x581_320" index="349089" value="1"/>
  <variable name="x582_556" index="349925" value="1"/>
  <variable name="x583_485" index="350454" value="1"/>
  <variable name="x584_130" index="350699" value="1"/>
  <variable name="x585_460" index="351629" value="1"/>
  <variable name="x586_535" index="352304" value="1"/>
  <variable name="x587_30" index="352399" value="1"/>
  <variable name="x588_113" index="353082" value="1"/>
  <variable name="x589_274" index="353843" value="1"/>
  <variable name="x590_199" index="354368" value="1"/>
  <variable name="x591_178" index="354947" value="1"/>
  <variable name="x592_284" index="355653" value="1"/>
  <variable name="x593_174" index="356143" value="1"/>
  <variable name="x594_101" index="356670" value="1"/>
  <variable name="x595_412" index="357581" value="1"/>
  <variable name="x596_108" index="357877" value="1"/>
  <variable name="x597_92" index="358461" value="1"/>
  <variable name="x598_376" index="359345" value="1"/>
  <variable name="x599_362" index="359931" value="1"/>
  <variable name="k1" index="360170" value="1"/>
  <variable name="k2" index="360171" value="1"/>
  <variable name="k4" index="360173" value="1"/>
  <variable name="k5" index="360174" value="1"/>
  <variable name="k7" index="360176" value="1"/>
  <variable name="k9" index="360178" value="1"/>
  <variable name="k11" index="360180" value="1"/>
  <variable name="u3" index="360185" value="1"/>
  <variable name="u4" index="360186" value="1"/>
  <variable name="u8" index="360190" value="1"/>
  <variable name="u10" index="360192" value="1"/>
  <variable name="u12" index="360194" value="1"/>
 </variables>
</CPLEXSolution>
